(set-info :smt-lib-version 2.6)
(set-logic LIA)
(set-info
  :source |
 Generated by PSyCO 0.1
 More info in N. P. Lopes and J. Monteiro. Weakest Precondition Synthesis for
 Compiler Optimizations, VMCAI'14.
|)
(set-info :category "industrial")
(set-info :status sat)
(declare-fun W_S1_V4 () Bool)
(declare-fun W_S1_V2 () Bool)
(declare-fun W_S1_V1 () Bool)
(declare-fun R_S1_V4 () Bool)
(declare-fun R_S1_V2 () Bool)
(declare-fun R_S1_V3 () Bool)
(declare-fun R_S1_V1 () Bool)
(declare-fun DISJ_W_S1_R_S1 () Bool)
(declare-fun W_S1_V3 () Bool)
(assert
 (let
 (($x2093
   (forall
    ((V1_0 Int) (V3_0 Int) 
     (V2_0 Int) (V4_0 Int) 
     (MW_S1_V1 Bool) (MW_S1_V3 Bool) 
     (MW_S1_V2 Bool) (MW_S1_V4 Bool) 
     (S1_V3_!137 Int) (S1_V3_!141 Int) 
     (S1_V3_!145 Int) (S1_V3_!149 Int) 
     (S1_V4_!139 Int) (S1_V4_!143 Int) 
     (S1_V4_!147 Int) (S1_V4_!151 Int) 
     (S1_V1_!136 Int) (S1_V1_!140 Int) 
     (S1_V1_!144 Int) (S1_V1_!148 Int) 
     (S1_V2_!138 Int) (S1_V2_!142 Int) 
     (S1_V2_!146 Int) (S1_V2_!150 Int))
    (let ((?x1457 (ite MW_S1_V4 S1_V4_!151 V4_0)))
    (let ((?x1555 (ite MW_S1_V4 S1_V4_!139 V4_0)))
    (let (($x1474 (= ?x1555 ?x1457)))
    (let ((?x1475 (ite MW_S1_V2 S1_V2_!150 V2_0)))
    (let ((?x1404 (ite MW_S1_V2 S1_V2_!138 V2_0)))
    (let (($x1408 (= ?x1404 ?x1475)))
    (let ((?x1877 (ite MW_S1_V3 S1_V3_!149 V3_0)))
    (let ((?x1500 (ite MW_S1_V3 S1_V3_!137 V3_0)))
    (let (($x1937 (= ?x1500 ?x1877)))
    (let ((?x1609 (ite MW_S1_V1 S1_V1_!140 V1_0)))
    (let ((?x1416 (+ 1 ?x1609)))
    (let ((?x1891 (ite MW_S1_V1 S1_V1_!144 ?x1416)))
    (let ((?x1459 (+ 1 ?x1891)))
    (let ((?x1585 (ite MW_S1_V1 S1_V1_!148 ?x1459)))
    (let ((?x1436 (ite MW_S1_V1 S1_V1_!136 V1_0)))
    (let (($x2085 (= ?x1436 ?x1585)))
    (let (($x2086 (and $x2085 $x1937 $x1408 $x1474)))
    (let ((?x1537 (ite MW_S1_V2 S1_V2_!146 V2_0)))
    (let (($x1488 (<= ?x1537 ?x1459)))
    (let (($x1489 (not $x1488)))
    (let ((?x1477 (+ (- 2) ?x1537)))
    (let (($x1456 (>= ?x1891 ?x1477)))
    (let ((?x1455 (+ 1 V1_0)))
    (let (($x1409 (<= V2_0 ?x1455)))
    (let (($x1490 (not $x1409)))
    (let ((?x1886 (+ (- 1) ?x1404)))
    (let (($x1887 (>= ?x1436 ?x1886)))
    (let (($x1611 (<= V2_0 V1_0)))
    (let (($x1613 (not $x1611)))
    (let (($x1426 (and $x1613 $x1887 $x1490 $x1456 $x1489)))
    (let (($x1551 (not $x1426)))
    (let (($x1595 (not MW_S1_V4)))
    (let (($x1479 (or $x1595 W_S1_V4)))
    (let (($x1407 (not MW_S1_V2)))
    (let (($x1478 (or $x1407 W_S1_V2)))
    (let (($x1561 (not MW_S1_V1)))
    (let (($x1420 (or $x1561 W_S1_V1)))
    (let (($x1583 (= S1_V2_!150 S1_V2_!146)))
    (let ((?x1872 (ite MW_S1_V4 S1_V4_!143 V4_0)))
    (let ((?x2037 (ite MW_S1_V4 S1_V4_!147 V4_0)))
    (let (($x2060 (= ?x2037 ?x1872)))
    (let (($x80 (not R_S1_V4)))
    (let (($x2061 (or $x80 $x2060)))
    (let ((?x1493 (ite MW_S1_V2 S1_V2_!142 V2_0)))
    (let (($x2058 (= ?x1537 ?x1493)))
    (let (($x78 (not R_S1_V2)))
    (let (($x2059 (or $x78 $x2058)))
    (let ((?x1581 (ite MW_S1_V3 S1_V3_!141 V3_0)))
    (let ((?x1862 (ite MW_S1_V3 S1_V3_!145 V3_0)))
    (let (($x2056 (= ?x1862 ?x1581)))
    (let (($x76 (not R_S1_V3)))
    (let (($x2057 (or $x76 $x2056)))
    (let (($x2054 (= ?x1891 ?x1609)))
    (let (($x74 (not R_S1_V1)))
    (let (($x2055 (or $x74 $x2054)))
    (let (($x2062 (and $x2055 $x2057 $x2059 $x2061)))
    (let (($x2063 (not $x2062)))
    (let (($x2083 (or $x2063 $x1583)))
    (let (($x1577 (= S1_V2_!150 S1_V2_!142)))
    (let (($x2049 (= ?x2037 V4_0)))
    (let (($x2050 (or $x80 $x2049)))
    (let (($x2047 (= ?x1537 V2_0)))
    (let (($x2048 (or $x78 $x2047)))
    (let (($x2045 (= ?x1862 V3_0)))
    (let (($x2046 (or $x76 $x2045)))
    (let ((?x1428 (+ (- 1) V1_0)))
    (let (($x2043 (= ?x1891 ?x1428)))
    (let (($x2044 (or $x74 $x2043)))
    (let (($x2051 (and $x2044 $x2046 $x2048 $x2050)))
    (let (($x2052 (not $x2051)))
    (let (($x2082 (or $x2052 $x1577)))
    (let (($x1859 (= S1_V2_!150 S1_V2_!138)))
    (let (($x2081 (or $x2052 $x1859)))
    (let (($x1462 (= S1_V2_!142 S1_V2_!146)))
    (let (($x1569 (= V4_0 ?x1872)))
    (let (($x1484 (or $x80 $x1569)))
    (let (($x1888 (= V2_0 ?x1493)))
    (let (($x1953 (or $x78 $x1888)))
    (let (($x1954 (= V3_0 ?x1581)))
    (let (($x1955 (or $x76 $x1954)))
    (let (($x1956 (= V1_0 ?x1416)))
    (let (($x1957 (or $x74 $x1956)))
    (let (($x1958 (and $x1957 $x1955 $x1953 $x1484)))
    (let (($x1959 (not $x1958)))
    (let (($x1960 (or $x1959 $x1462)))
    (let (($x1961 (= S1_V2_!142 S1_V2_!138)))
    (let (($x1962 (= S1_V2_!138 S1_V2_!146)))
    (let (($x1963 (or $x1959 $x1962)))
    (let (($x1964 (= S1_V1_!148 S1_V1_!144)))
    (let (($x2080 (or $x2063 $x1964)))
    (let (($x1966 (= S1_V1_!140 S1_V1_!148)))
    (let (($x2038 (= V4_0 ?x2037)))
    (let (($x2039 (or $x80 $x2038)))
    (let (($x2035 (= V2_0 ?x1537)))
    (let (($x2036 (or $x78 $x2035)))
    (let (($x2033 (= V3_0 ?x1862)))
    (let (($x2034 (or $x76 $x2033)))
    (let (($x1892 (= V1_0 ?x1459)))
    (let (($x1850 (or $x74 $x1892)))
    (let (($x2040 (and $x1850 $x2034 $x2036 $x2039)))
    (let (($x2041 (not $x2040)))
    (let (($x2079 (or $x2041 $x1966)))
    (let (($x1979 (= S1_V1_!140 S1_V1_!144)))
    (let (($x1980 (or $x1959 $x1979)))
    (let (($x1981 (= S1_V1_!136 S1_V1_!148)))
    (let (($x2078 (or $x2041 $x1981)))
    (let (($x1983 (= S1_V1_!136 S1_V1_!144)))
    (let (($x1984 (or $x1959 $x1983)))
    (let (($x1985 (= S1_V1_!136 S1_V1_!140)))
    (let (($x1986 (= S1_V4_!147 S1_V4_!151)))
    (let (($x2073 (= ?x1872 ?x2037)))
    (let (($x2074 (or $x80 $x2073)))
    (let (($x2071 (= ?x1493 ?x1537)))
    (let (($x2072 (or $x78 $x2071)))
    (let (($x2069 (= ?x1581 ?x1862)))
    (let (($x2070 (or $x76 $x2069)))
    (let (($x2067 (= ?x1609 ?x1891)))
    (let (($x2068 (or $x74 $x2067)))
    (let (($x2075 (and $x2068 $x2070 $x2072 $x2074)))
    (let (($x2076 (not $x2075)))
    (let (($x2077 (or $x2076 $x1986)))
    (let (($x1999 (= S1_V4_!143 S1_V4_!151)))
    (let (($x2066 (or $x2041 $x1999)))
    (let (($x2001 (= S1_V4_!143 S1_V4_!147)))
    (let (($x2002 (or $x1959 $x2001)))
    (let (($x2003 (= S1_V4_!143 S1_V4_!139)))
    (let (($x2004 (= S1_V4_!139 S1_V4_!151)))
    (let (($x2065 (or $x2041 $x2004)))
    (let (($x2006 (= S1_V4_!139 S1_V4_!147)))
    (let (($x2007 (or $x1959 $x2006)))
    (let (($x2008 (= S1_V3_!149 S1_V3_!145)))
    (let (($x2064 (or $x2063 $x2008)))
    (let (($x2010 (= S1_V3_!149 S1_V3_!137)))
    (let (($x2053 (or $x2052 $x2010)))
    (let (($x2012 (= S1_V3_!145 S1_V3_!137)))
    (let (($x2013 (= ?x1872 V4_0)))
    (let (($x2014 (or $x80 $x2013)))
    (let (($x2015 (= ?x1493 V2_0)))
    (let (($x2016 (or $x78 $x2015)))
    (let (($x2017 (= ?x1581 V3_0)))
    (let (($x2018 (or $x76 $x2017)))
    (let (($x2019 (= ?x1609 ?x1428)))
    (let (($x2020 (or $x74 $x2019)))
    (let (($x2021 (and $x2020 $x2018 $x2016 $x2014)))
    (let (($x2022 (not $x2021)))
    (let (($x2023 (or $x2022 $x2012)))
    (let (($x2024 (= S1_V3_!141 S1_V3_!149)))
    (let (($x2042 (or $x2041 $x2024)))
    (let (($x2026 (= S1_V3_!141 S1_V3_!145)))
    (let (($x2027 (or $x1959 $x2026)))
    (let (($x2028 (= S1_V3_!141 S1_V3_!137)))
    (let
    (($x2090
      (and $x2028 $x2027 $x2042 $x2023 $x2053 $x2064 $x2007 $x2065 $x2003
      $x2002 $x2066 $x2077 $x1985 $x1984 $x2078 $x1980 $x2079 $x2080 $x1963
      $x1961 $x1960 $x2081 $x2082 $x2083 $x1420 $x1478 $x1479)))
    (let (($x2091 (not $x2090))) (or $x2091 $x1551 $x2086)))))))))))))))))))))))))))))))))))))))))))))))))))))))))))))))))))))))))))))))))))))))))))))))))))))))))))))))))))))))))))))))))))))))))))))))))))))))))))))
 (let (($x18 (and W_S1_V4 R_S1_V4)))
 (let (($x15 (and W_S1_V2 R_S1_V2)))
 (let (($x10 (and W_S1_V1 R_S1_V1)))
 (let (($x25 (or $x10 R_S1_V3 $x15 $x18)))
 (let (($x26 (not $x25)))
 (let (($x27 (= DISJ_W_S1_R_S1 $x26))) (and W_S1_V3 $x27 $x2093)))))))))
(assert
 (let (($x1389 (not W_S1_V2)))
 (let (($x2361 (and $x1389 DISJ_W_S1_R_S1))) (not $x2361))))
(check-sat)
(exit)

